Li2 O3 Ru1                              
   1.00000000000000     
     5.2384450557754478    0.0000000000000000    0.0613340761640277
     0.0000000000000000    8.9542137374191864    0.0000000000000000
    -1.7107436661728090    0.0000000000000000    9.6954162395435812
   Ru   Li   O 
     8    16    24
Direct
  0.2479440944481707  0.0820770290826588  0.0000786337393382
  0.7520558905518313  0.9179229779173458  0.9999213592606576
  0.7520558905518313  0.0820770290826588  0.4999213592606576
  0.2479440944481707  0.9179229779173458  0.5000786407393495
  0.7479441094481687  0.5820770220826542  0.0000786337393382
  0.2520558905518315  0.4179229779173456  0.9999213592606576
  0.2520558905518315  0.5820770220826542  0.4999213592606576
  0.7479441094481687  0.4179229779173456  0.5000786407393495
  0.2500000000000000  0.2500000000000000  0.5000000000000000
  0.7500000000000000  0.7500000000000000  0.5000000000000000
  0.7500000000000000  0.2500000000000000 -0.0000000000000000
  0.2500000000000000  0.7500000000000000 -0.0000000000000000
  0.0000000000000000  0.0854159746041133  0.2500000000000000
  0.0000000000000000  0.9145840323958764  0.7500000000000000
  0.5000000000000000  0.5854159676041236  0.2500000000000000
  0.5000000000000000  0.4145840323958909  0.7500000000000000
  0.0000000000000000  0.4090000445852447  0.2500000000000000
  0.0000000000000000  0.5909999554147554  0.7500000000000000
  0.5000000000000000  0.9090000445852446  0.2500000000000000
  0.5000000000000000  0.0909999554147554  0.7500000000000000
  0.0000000000000000  0.7525860909034334  0.2500000000000000
  0.0000000000000000  0.2474139090965598  0.7500000000000000
  0.5000000000000000  0.2525860909034336  0.2500000000000000
  0.5000000000000000  0.7474139090965666  0.7500000000000000
  0.1397432961913120  0.2429106399798078  0.1186785757852471
  0.8602567188086926  0.7570893600201920  0.8813213942147436
  0.8602567188086926  0.2429106399798078  0.3813214242147456
  0.1397432961913120  0.7570893600201920  0.6186786057852564
  0.6397432811913074  0.7429106399798080  0.1186785757852471
  0.3602567188086927  0.2570893600201923  0.8813213942147436
  0.3602567188086927  0.7429106399798080  0.3813214242147527
  0.6397432811913074  0.2570893600201923  0.6186786057852564
  0.1195596503023877  0.5701071132406165  0.1164142079910719
  0.8804403716976137  0.4298928867593906  0.8835857840089274
  0.8804403716976137  0.5701071132406165  0.3835857840089276
  0.1195596503023877  0.4298928867593906  0.6164142159910726
  0.6195596283023863  0.0701071132406093  0.1164142079910719
  0.3804403416976189  0.9298928867593906  0.8835857840089274
  0.3804403416976189  0.0701071132406093  0.3835857840089276
  0.6195596283023934  0.9298928867593835  0.6164142159910726
  0.1116390301487531  0.9220258915030509  0.1166725312822560
  0.8883609398512444  0.0779741084969489  0.8833274837177421
  0.8883609398512444  0.9220258915030509  0.3833274837177417
  0.1116390301487531  0.0779741084969489  0.6166725162822579
  0.6116390601487556  0.4220258915030511  0.1166725312822560
  0.3883609698512542  0.5779741084969491  0.8833274837177421
  0.3883609698512542  0.4220258915030511  0.3833274837177417
  0.6116390601487556  0.5779741084969491  0.6166725162822579
 
  0.00000000E+00  0.00000000E+00  0.00000000E+00
  0.00000000E+00  0.00000000E+00  0.00000000E+00
  0.00000000E+00  0.00000000E+00  0.00000000E+00
  0.00000000E+00  0.00000000E+00  0.00000000E+00
  0.00000000E+00  0.00000000E+00  0.00000000E+00
  0.00000000E+00  0.00000000E+00  0.00000000E+00
  0.00000000E+00  0.00000000E+00  0.00000000E+00
  0.00000000E+00  0.00000000E+00  0.00000000E+00
  0.00000000E+00  0.00000000E+00  0.00000000E+00
  0.00000000E+00  0.00000000E+00  0.00000000E+00
  0.00000000E+00  0.00000000E+00  0.00000000E+00
  0.00000000E+00  0.00000000E+00  0.00000000E+00
  0.00000000E+00  0.00000000E+00  0.00000000E+00
  0.00000000E+00  0.00000000E+00  0.00000000E+00
  0.00000000E+00  0.00000000E+00  0.00000000E+00
  0.00000000E+00  0.00000000E+00  0.00000000E+00
  0.00000000E+00  0.00000000E+00  0.00000000E+00
  0.00000000E+00  0.00000000E+00  0.00000000E+00
  0.00000000E+00  0.00000000E+00  0.00000000E+00
  0.00000000E+00  0.00000000E+00  0.00000000E+00
  0.00000000E+00  0.00000000E+00  0.00000000E+00
  0.00000000E+00  0.00000000E+00  0.00000000E+00
  0.00000000E+00  0.00000000E+00  0.00000000E+00
  0.00000000E+00  0.00000000E+00  0.00000000E+00
  0.00000000E+00  0.00000000E+00  0.00000000E+00
  0.00000000E+00  0.00000000E+00  0.00000000E+00
  0.00000000E+00  0.00000000E+00  0.00000000E+00
  0.00000000E+00  0.00000000E+00  0.00000000E+00
  0.00000000E+00  0.00000000E+00  0.00000000E+00
  0.00000000E+00  0.00000000E+00  0.00000000E+00
  0.00000000E+00  0.00000000E+00  0.00000000E+00
  0.00000000E+00  0.00000000E+00  0.00000000E+00
  0.00000000E+00  0.00000000E+00  0.00000000E+00
  0.00000000E+00  0.00000000E+00  0.00000000E+00
  0.00000000E+00  0.00000000E+00  0.00000000E+00
  0.00000000E+00  0.00000000E+00  0.00000000E+00
  0.00000000E+00  0.00000000E+00  0.00000000E+00
  0.00000000E+00  0.00000000E+00  0.00000000E+00
  0.00000000E+00  0.00000000E+00  0.00000000E+00
  0.00000000E+00  0.00000000E+00  0.00000000E+00
  0.00000000E+00  0.00000000E+00  0.00000000E+00
  0.00000000E+00  0.00000000E+00  0.00000000E+00
  0.00000000E+00  0.00000000E+00  0.00000000E+00
  0.00000000E+00  0.00000000E+00  0.00000000E+00
  0.00000000E+00  0.00000000E+00  0.00000000E+00
  0.00000000E+00  0.00000000E+00  0.00000000E+00
  0.00000000E+00  0.00000000E+00  0.00000000E+00
  0.00000000E+00  0.00000000E+00  0.00000000E+00
