Sc2 P2 S8
1.0
6.266250 0.000000 0.122671
1.031974 6.484069 0.315414
0.000000 0.000000 7.524712
Sc P S
2 2 8
direct
0.204414 0.695441 0.057010 Sc
0.795586 0.304559 0.942990 Sc
0.311583 0.262649 0.831757 P
0.688417 0.737351 0.168243 P
0.083186 0.519281 0.770564 S
0.916814 0.480719 0.229436 S
0.121273 0.035743 0.813499 S
0.878727 0.964257 0.186501 S
0.404843 0.291036 0.089830 S
0.595157 0.708964 0.910170 S
0.421253 0.769016 0.324605 S
0.578747 0.230984 0.675395 S
