Li2 O3 Ru1                              
   1.00000000000000     
     5.2411899762870959    0.0000000000000000    0.0623045771201398
     0.0000000000000000    8.9554844497766162    0.0000000000000000
    -1.7098575359626194    0.0000000000000000    9.6964737783736759
   Ru   Li   O 
     8    16    24
Direct
  0.2479313774196596  0.0820630491515308  0.0000727139261895
  0.7520686075803386  0.9179369578484761  0.9999272790738122
  0.7520686075803386  0.0820630491515308  0.4999272790738055
  0.2479313774196595  0.9179369578484761  0.5000727209261950
  0.7479313924196614  0.5820630421515239  0.0000727139261895
  0.2520686075803408  0.4179369578484743  0.9999272790738122
  0.2520686075803410  0.5820630421515239  0.4999272790738055
  0.7479313924196614  0.4179369578484743  0.5000727209261950
  0.2500000000000000  0.2500000000000000  0.5000000000000000
  0.7500000000000000  0.7500000000000000  0.5000000000000000
  0.7500000000000000  0.2500000000000000  0.0000000000000000
  0.2500000000000000  0.7500000000000000  0.0000000000000000
  0.0000000000000000  0.0854012954264309  0.2500000000000000
  0.0000000000000000  0.9145987115735640  0.7500000000000000
  0.5000000000000000  0.5854012884264360  0.2500000000000000
  0.5000000000000000  0.4145987115735724  0.7500000000000000
  0.0000000000000000  0.4089610337434434  0.2500000000000000
  0.0000000000000000  0.5910389662565563  0.7500000000000000
  0.5000000000000000  0.9089610337434438  0.2500000000000000
  0.5000000000000000  0.0910389662565565  0.7500000000000000
  0.0000000000000000  0.7525492254021492  0.2500000000000000
  0.0000000000000000  0.2474507745978467  0.7500000000000000
  0.5000000000000000  0.2525492254021519  0.2500000000000000
  0.5000000000000000  0.7474507745978508  0.7500000000000000
  0.1397354629255809  0.2429050531359625  0.1186615306313603
  0.8602645520744253  0.7570949468640376  0.8813384393686370
  0.8602645520744255  0.2429050531359625  0.3813384693686381
  0.1397354629255811  0.7570949468640376  0.6186615606313630
  0.6397354479255745  0.7429050531359629  0.1186615306313600
  0.3602645520744247  0.2570949468640368  0.8813384393686370
  0.3602645520744247  0.7429050531359624  0.3813384693686395
  0.6397354479255745  0.2570949468640368  0.6186615606313630
  0.1194242373148774  0.5700908470033468  0.1163712686937219
  0.8805757846851255  0.4299091529966563  0.8836287233062803
  0.8805757846851260  0.5700908470033468  0.3836287233062779
  0.1194242373148774  0.4299091529966562  0.6163712766937197
  0.6194242153148745  0.0700908470033425  0.1163712686937219
  0.3805757546851302  0.9299091529966604  0.8836287233062803
  0.3805757546851303  0.0700908470033425  0.3836287233062779
  0.6194242153148782  0.9299091529966530  0.6163712766937197
  0.1114931806607144  0.9220470923081325  0.1166319007377364
  0.8885067893392787  0.0779529076918634  0.8833681142622589
  0.8885067893392787  0.9220470923081325  0.3833681142622588
  0.1114931806607147  0.0779529076918634  0.6166318857377411
  0.6114932106607213  0.4220470923081346  0.1166319007377365
  0.3885068193392877  0.5779529076918675  0.8833681142622589
  0.3885068193392877  0.4220470923081346  0.3833681142622587
  0.6114932106607213  0.5779529076918675  0.6166318857377411
 
  0.00000000E+00  0.00000000E+00  0.00000000E+00
  0.00000000E+00  0.00000000E+00  0.00000000E+00
  0.00000000E+00  0.00000000E+00  0.00000000E+00
  0.00000000E+00  0.00000000E+00  0.00000000E+00
  0.00000000E+00  0.00000000E+00  0.00000000E+00
  0.00000000E+00  0.00000000E+00  0.00000000E+00
  0.00000000E+00  0.00000000E+00  0.00000000E+00
  0.00000000E+00  0.00000000E+00  0.00000000E+00
  0.00000000E+00  0.00000000E+00  0.00000000E+00
  0.00000000E+00  0.00000000E+00  0.00000000E+00
  0.00000000E+00  0.00000000E+00  0.00000000E+00
  0.00000000E+00  0.00000000E+00  0.00000000E+00
  0.00000000E+00  0.00000000E+00  0.00000000E+00
  0.00000000E+00  0.00000000E+00  0.00000000E+00
  0.00000000E+00  0.00000000E+00  0.00000000E+00
  0.00000000E+00  0.00000000E+00  0.00000000E+00
  0.00000000E+00  0.00000000E+00  0.00000000E+00
  0.00000000E+00  0.00000000E+00  0.00000000E+00
  0.00000000E+00  0.00000000E+00  0.00000000E+00
  0.00000000E+00  0.00000000E+00  0.00000000E+00
  0.00000000E+00  0.00000000E+00  0.00000000E+00
  0.00000000E+00  0.00000000E+00  0.00000000E+00
  0.00000000E+00  0.00000000E+00  0.00000000E+00
  0.00000000E+00  0.00000000E+00  0.00000000E+00
  0.00000000E+00  0.00000000E+00  0.00000000E+00
  0.00000000E+00  0.00000000E+00  0.00000000E+00
  0.00000000E+00  0.00000000E+00  0.00000000E+00
  0.00000000E+00  0.00000000E+00  0.00000000E+00
  0.00000000E+00  0.00000000E+00  0.00000000E+00
  0.00000000E+00  0.00000000E+00  0.00000000E+00
  0.00000000E+00  0.00000000E+00  0.00000000E+00
  0.00000000E+00  0.00000000E+00  0.00000000E+00
  0.00000000E+00  0.00000000E+00  0.00000000E+00
  0.00000000E+00  0.00000000E+00  0.00000000E+00
  0.00000000E+00  0.00000000E+00  0.00000000E+00
  0.00000000E+00  0.00000000E+00  0.00000000E+00
  0.00000000E+00  0.00000000E+00  0.00000000E+00
  0.00000000E+00  0.00000000E+00  0.00000000E+00
  0.00000000E+00  0.00000000E+00  0.00000000E+00
  0.00000000E+00  0.00000000E+00  0.00000000E+00
  0.00000000E+00  0.00000000E+00  0.00000000E+00
  0.00000000E+00  0.00000000E+00  0.00000000E+00
  0.00000000E+00  0.00000000E+00  0.00000000E+00
  0.00000000E+00  0.00000000E+00  0.00000000E+00
  0.00000000E+00  0.00000000E+00  0.00000000E+00
  0.00000000E+00  0.00000000E+00  0.00000000E+00
  0.00000000E+00  0.00000000E+00  0.00000000E+00
  0.00000000E+00  0.00000000E+00  0.00000000E+00
