Cs3 Sb3 F18
1.0
8.117745 0.000000 0.000000
-4.058872 7.030173 0.000000
0.000000 0.000000 8.366225
Cs Sb F
3 3 18
direct
0.000000 0.000000 0.500000 Cs
0.333333 0.666667 0.166667 Cs
0.666667 0.333333 0.833333 Cs
0.000000 0.000000 0.000000 Sb
0.333333 0.666667 0.666667 Sb
0.666667 0.333333 0.333333 Sb
0.066065 0.215993 0.134954 F
0.267268 0.450674 0.531713 F
0.450674 0.183405 0.468287 F
0.882660 0.483261 0.198379 F
0.816595 0.267268 0.468287 F
0.516739 0.399398 0.198379 F
0.732732 0.549326 0.468287 F
0.933935 0.784007 0.865046 F
0.117340 0.516739 0.801621 F
0.549326 0.816595 0.531713 F
0.483261 0.600602 0.801621 F
0.183405 0.732732 0.531713 F
0.399398 0.882660 0.801621 F
0.600602 0.117340 0.198379 F
0.784007 0.850072 0.134954 F
0.215993 0.149928 0.865046 F
0.149928 0.933935 0.134954 F
0.850072 0.066065 0.865046 F
