Ba6 Ti40 O80
1.0
10.331136 0.000000 -9.935067
0.000000 14.912847 0.000000
0.000000 0.000000 10.135027
Ba Ti O
6 40 80
direct
0.000000 0.366041 0.000000 Ba
0.000000 0.633959 0.000000 Ba
0.500000 0.866041 0.000000 Ba
0.500000 0.133959 0.000000 Ba
0.000000 0.000000 0.000000 Ba
0.500000 0.500000 0.000000 Ba
0.143526 0.201174 0.469030 Ti
0.856474 0.798826 0.530970 Ti
0.856474 0.201174 0.530970 Ti
0.143526 0.798826 0.469030 Ti
0.643526 0.701174 0.469030 Ti
0.356474 0.298826 0.530970 Ti
0.356474 0.701174 0.530970 Ti
0.643526 0.298826 0.469030 Ti
0.149110 0.598530 0.483332 Ti
0.850890 0.401470 0.516668 Ti
0.850890 0.598530 0.516668 Ti
0.149110 0.401470 0.483332 Ti
0.649110 0.098530 0.483332 Ti
0.350890 0.901470 0.516668 Ti
0.350890 0.098530 0.516668 Ti
0.649110 0.901470 0.483332 Ti
0.164186 0.098460 0.817305 Ti
0.835814 0.901540 0.182695 Ti
0.835814 0.098460 0.182695 Ti
0.164186 0.901540 0.817305 Ti
0.664186 0.598460 0.817305 Ti
0.335814 0.401540 0.182695 Ti
0.335814 0.598460 0.182695 Ti
0.664186 0.401540 0.817305 Ti
0.172181 0.299085 0.819236 Ti
0.827819 0.700915 0.180764 Ti
0.827819 0.299085 0.180764 Ti
0.172181 0.700915 0.819236 Ti
0.672181 0.799085 0.819236 Ti
0.327819 0.200915 0.180764 Ti
0.327819 0.799085 0.180764 Ti
0.672181 0.200915 0.819236 Ti
0.153108 0.000000 0.491264 Ti
0.846892 0.000000 0.508736 Ti
0.653108 0.500000 0.491264 Ti
0.346892 0.500000 0.508736 Ti
0.159177 0.500000 0.818008 Ti
0.840823 0.500000 0.181992 Ti
0.659177 0.000000 0.818008 Ti
0.340823 0.000000 0.181992 Ti
0.040864 0.398075 0.720166 O
0.959136 0.601925 0.279834 O
0.959136 0.398075 0.279834 O
0.040864 0.601925 0.720166 O
0.540864 0.898075 0.720166 O
0.459136 0.101925 0.279834 O
0.459136 0.898075 0.279834 O
0.540864 0.101925 0.720166 O
0.042022 0.200728 0.714990 O
0.957978 0.799272 0.285010 O
0.957978 0.200728 0.285010 O
0.042022 0.799272 0.714990 O
0.542022 0.700728 0.714990 O
0.457978 0.299272 0.285010 O
0.457978 0.700728 0.285010 O
0.542022 0.299272 0.714990 O
0.156160 0.299355 0.615432 O
0.843840 0.700645 0.384568 O
0.843840 0.299355 0.384568 O
0.156160 0.700645 0.615432 O
0.656160 0.799355 0.615432 O
0.343840 0.200645 0.384568 O
0.343840 0.799355 0.384568 O
0.656160 0.200645 0.615432 O
0.158763 0.700067 0.355967 O
0.841237 0.299933 0.644033 O
0.841237 0.700067 0.644033 O
0.158763 0.299933 0.355967 O
0.658763 0.200067 0.355967 O
0.341237 0.799933 0.644033 O
0.341237 0.200067 0.644033 O
0.658763 0.799933 0.355967 O
0.158873 0.098361 0.357147 O
0.841127 0.901639 0.642853 O
0.841127 0.098361 0.642853 O
0.158873 0.901639 0.357147 O
0.658873 0.598361 0.357147 O
0.341127 0.401639 0.642853 O
0.341127 0.598361 0.642853 O
0.658873 0.401639 0.357147 O
0.158979 0.101026 0.619227 O
0.841021 0.898974 0.380773 O
0.841021 0.101026 0.380773 O
0.158979 0.898974 0.619227 O
0.658979 0.601026 0.619227 O
0.341021 0.398974 0.380773 O
0.341021 0.601026 0.380773 O
0.658979 0.398974 0.619227 O
0.202404 0.299741 0.051015 O
0.797596 0.700259 0.948985 O
0.797596 0.299741 0.948985 O
0.202404 0.700259 0.051015 O
0.702404 0.799741 0.051015 O
0.297596 0.200259 0.948985 O
0.297596 0.799741 0.948985 O
0.702404 0.200259 0.051015 O
0.203854 0.097970 0.051971 O
0.796146 0.902030 0.948029 O
0.796146 0.097970 0.948029 O
0.203854 0.902030 0.051971 O
0.703854 0.597970 0.051971 O
0.296146 0.402030 0.948029 O
0.296146 0.597970 0.948029 O
0.703854 0.402030 0.051971 O
0.038162 0.000000 0.717672 O
0.961838 0.000000 0.282328 O
0.538162 0.500000 0.717672 O
0.461838 0.500000 0.282328 O
0.154735 0.500000 0.348456 O
0.845265 0.500000 0.651544 O
0.654735 0.000000 0.348456 O
0.345265 0.000000 0.651544 O
0.157250 0.500000 0.620740 O
0.842750 0.500000 0.379260 O
0.657250 0.000000 0.620740 O
0.342750 0.000000 0.379260 O
0.197581 0.500000 0.051281 O
0.802419 0.500000 0.948719 O
0.697581 0.000000 0.051281 O
0.302419 0.000000 0.948719 O
