Ca2 Ti8 O18
1.0
8.521099 0.000000 0.000000
0.000000 8.521099 0.000000
0.000000 0.000000 5.231178
Ca Ti O
2 8 18
direct
0.000000 0.500000 0.133454 Ca
0.500000 0.000000 0.866546 Ca
0.089885 0.782875 0.619824 Ti
0.717125 0.589885 0.619824 Ti
0.910115 0.217125 0.619824 Ti
0.282875 0.410115 0.619824 Ti
0.410115 0.717125 0.380176 Ti
0.782875 0.910115 0.380176 Ti
0.589885 0.282875 0.380176 Ti
0.217125 0.089885 0.380176 Ti
0.069471 0.740505 0.930429 O
0.759495 0.569471 0.930429 O
0.930529 0.259495 0.930429 O
0.240505 0.430529 0.930429 O
0.430529 0.759495 0.069571 O
0.740505 0.930529 0.069571 O
0.569471 0.240505 0.069571 O
0.259495 0.069471 0.069571 O
0.106113 0.293911 0.463546 O
0.206089 0.606113 0.463546 O
0.893887 0.706089 0.463546 O
0.793911 0.393887 0.463546 O
0.393887 0.206089 0.536454 O
0.293911 0.893887 0.536454 O
0.606113 0.793911 0.536454 O
0.706089 0.106113 0.536454 O
0.000000 0.000000 0.500000 O
0.500000 0.500000 0.500000 O
