Ba2 Ti2 O6
1.0
3.987531 0.000000 0.000000
0.000000 5.805608 0.000000
0.000000 0.000000 5.855292
Ba Ti O
2 2 6
direct
0.000000 0.000000 0.992521 Ba
0.000000 0.500000 0.492521 Ba
0.500000 0.000000 0.475486 Ti
0.500000 0.500000 0.975486 Ti
0.500000 0.241299 0.268312 O
0.500000 0.758701 0.268312 O
0.500000 0.741299 0.768312 O
0.500000 0.258701 0.768312 O
0.000000 0.000000 0.515468 O
0.000000 0.500000 0.015468 O
