Y6 Ti6 O18
1.0
6.093029 0.000000 0.000000
-3.046515 5.276718 0.000000
0.000000 0.000000 12.018940
Y Ti O
6 6 18
direct
0.333333 0.666667 0.231652 Y
0.666667 0.333333 0.731652 Y
0.666667 0.333333 0.231652 Y
0.333333 0.666667 0.731652 Y
0.000000 0.000000 0.279440 Y
0.000000 0.000000 0.779440 Y
0.000000 0.334348 0.001384 Ti
0.665652 0.000000 0.501384 Ti
0.665652 0.665652 0.001384 Ti
0.000000 0.665652 0.501384 Ti
0.334348 0.000000 0.001384 Ti
0.334348 0.334348 0.501384 Ti
0.000000 0.305117 0.165573 O
0.694883 0.000000 0.665573 O
0.694883 0.694883 0.165573 O
0.000000 0.694883 0.665573 O
0.305117 0.000000 0.165573 O
0.305117 0.305117 0.665573 O
0.000000 0.360583 0.837921 O
0.639417 0.000000 0.337921 O
0.639417 0.639417 0.837921 O
0.000000 0.639417 0.337921 O
0.360583 0.000000 0.837921 O
0.360583 0.360583 0.337921 O
0.333333 0.666667 0.020568 O
0.666667 0.333333 0.520568 O
0.666667 0.333333 0.020568 O
0.333333 0.666667 0.520568 O
0.000000 0.000000 0.476488 O
0.000000 0.000000 0.976488 O
