Li2 O3 Ru1                              
   1.00000000000000     
     4.8738173169521568    0.0000000000000000    0.0107137572139956
     0.0000000000000000    8.8638388489800182    0.0000000000000000
    -1.6864119805692355    0.0000000000000000    9.8596590998292051
   Ru   Li   O 
     8    16    24
Direct
  0.2687947633190050  0.0735557921611348  0.0001600072968072
  0.7312052216809974  0.9264442148388693 -0.0001600142968114
  0.7312052216809974  0.0735557921611348  0.4998399857031888
  0.2687947633190050  0.9264442148388693  0.5001600142968111
  0.7687947783190026  0.5735557851611307  0.0001600072968072
  0.2312052216809973  0.4264442148388694 -0.0001600142968114
  0.2312052216809973  0.5735557851611307  0.4998399857031888
  0.7687947783190026  0.4264442148388694  0.5001600142968111
  0.2500000000000000  0.2500000000000000  0.5000000000000000
  0.7500000000000000  0.7500000000000000  0.5000000000000000
  0.7500000000000000  0.2500000000000000 -0.0000000000000000
  0.2500000000000000  0.7500000000000000 -0.0000000000000000
 -0.0000000000000000  0.0907324068183152  0.2500000000000000
 -0.0000000000000000  0.9092676001816820  0.7500000000000000
  0.5000000000000000  0.5907323998183180  0.2500000000000000
  0.5000000000000000  0.4092676001816820  0.7500000000000000
 -0.0000000000000000  0.4051890567805748  0.2500000000000000
 -0.0000000000000000  0.5948109432194251  0.7500000000000000
  0.5000000000000000  0.9051890567805749  0.2500000000000000
  0.5000000000000000  0.0948109432194253  0.7500000000000000
 -0.0000000000000000  0.7554560126809257  0.2500000000000000
 -0.0000000000000000  0.2445439873190745  0.7500000000000000
  0.5000000000000000  0.2554560126809257  0.2500000000000000
  0.5000000000000000  0.7445439873190743  0.7500000000000000
  0.1321086379582662  0.2449028869966808  0.1107239839618889
  0.8678913770417387  0.7550971130033194  0.8892759860381085
  0.8678913770417387  0.2449028869966808  0.3892760160381112
  0.1321086379582662  0.7550971130033194  0.6107240139618915
  0.6321086229582613  0.7449028869966806  0.1107239839618889
  0.3678913770417387  0.2550971130033193  0.8892759860381085
  0.3678913770417387  0.7449028869966806  0.3892760160381112
  0.6321086229582613  0.2550971130033193  0.6107240139618915
  0.1287075362184048  0.5813142818161005  0.1295792929564172
  0.8712924857815973  0.4186857181838993  0.8704206990435817
  0.8712924857815973  0.5813142818161005  0.3704206990435820
  0.1287075362184048  0.4186857181838993  0.6295793009564183
  0.6287075142184027  0.0813142818161007  0.1295792929564172
  0.3712924557816015  0.9186857181838995  0.8704206990435817
  0.3712924557816015  0.0813142818161007  0.3704206990435820
  0.6287075142184027  0.9186857181838995  0.6295793009564183
  0.1161020593379362  0.9157344082488215  0.1183209802080359
  0.8838979106620610  0.0842655917511783  0.8816790347919619
  0.8838979106620610  0.9157344082488215  0.3816790347919619
  0.1161020593379362  0.0842655917511783  0.6183209652080381
  0.6161020893379390  0.4157344082488215  0.1183209802080359
  0.3838979406620637  0.5842655917511785  0.8816790347919619
  0.3838979406620637  0.4157344082488215  0.3816790347919619
  0.6161020893379390  0.5842655917511785  0.6183209652080381
 
  0.00000000E+00  0.00000000E+00  0.00000000E+00
  0.00000000E+00  0.00000000E+00  0.00000000E+00
  0.00000000E+00  0.00000000E+00  0.00000000E+00
  0.00000000E+00  0.00000000E+00  0.00000000E+00
  0.00000000E+00  0.00000000E+00  0.00000000E+00
  0.00000000E+00  0.00000000E+00  0.00000000E+00
  0.00000000E+00  0.00000000E+00  0.00000000E+00
  0.00000000E+00  0.00000000E+00  0.00000000E+00
  0.00000000E+00  0.00000000E+00  0.00000000E+00
  0.00000000E+00  0.00000000E+00  0.00000000E+00
  0.00000000E+00  0.00000000E+00  0.00000000E+00
  0.00000000E+00  0.00000000E+00  0.00000000E+00
  0.00000000E+00  0.00000000E+00  0.00000000E+00
  0.00000000E+00  0.00000000E+00  0.00000000E+00
  0.00000000E+00  0.00000000E+00  0.00000000E+00
  0.00000000E+00  0.00000000E+00  0.00000000E+00
  0.00000000E+00  0.00000000E+00  0.00000000E+00
  0.00000000E+00  0.00000000E+00  0.00000000E+00
  0.00000000E+00  0.00000000E+00  0.00000000E+00
  0.00000000E+00  0.00000000E+00  0.00000000E+00
  0.00000000E+00  0.00000000E+00  0.00000000E+00
  0.00000000E+00  0.00000000E+00  0.00000000E+00
  0.00000000E+00  0.00000000E+00  0.00000000E+00
  0.00000000E+00  0.00000000E+00  0.00000000E+00
  0.00000000E+00  0.00000000E+00  0.00000000E+00
  0.00000000E+00  0.00000000E+00  0.00000000E+00
  0.00000000E+00  0.00000000E+00  0.00000000E+00
  0.00000000E+00  0.00000000E+00  0.00000000E+00
  0.00000000E+00  0.00000000E+00  0.00000000E+00
  0.00000000E+00  0.00000000E+00  0.00000000E+00
  0.00000000E+00  0.00000000E+00  0.00000000E+00
  0.00000000E+00  0.00000000E+00  0.00000000E+00
  0.00000000E+00  0.00000000E+00  0.00000000E+00
  0.00000000E+00  0.00000000E+00  0.00000000E+00
  0.00000000E+00  0.00000000E+00  0.00000000E+00
  0.00000000E+00  0.00000000E+00  0.00000000E+00
  0.00000000E+00  0.00000000E+00  0.00000000E+00
  0.00000000E+00  0.00000000E+00  0.00000000E+00
  0.00000000E+00  0.00000000E+00  0.00000000E+00
  0.00000000E+00  0.00000000E+00  0.00000000E+00
  0.00000000E+00  0.00000000E+00  0.00000000E+00
  0.00000000E+00  0.00000000E+00  0.00000000E+00
  0.00000000E+00  0.00000000E+00  0.00000000E+00
  0.00000000E+00  0.00000000E+00  0.00000000E+00
  0.00000000E+00  0.00000000E+00  0.00000000E+00
  0.00000000E+00  0.00000000E+00  0.00000000E+00
  0.00000000E+00  0.00000000E+00  0.00000000E+00
  0.00000000E+00  0.00000000E+00  0.00000000E+00
