Li40 Fe8 O32                            
   1.00000000000000
     5.1157462623438237    0.0000000000000000    0.0000000000000000
     0.0000000000000000   16.2395918424576173    0.0000292138242691
     0.0000000000000000    0.0000175354616120    9.7480236066588759
   Li   Fe   O
    40     8    32
Direct
  0.1305586447625373  0.1695422500922774  0.3105698559626120
  0.8694413552374627  0.8304577499077226  0.6894301440373880
  0.3694430524170400  0.8304579506630176  0.8105732860553090
  0.6305569475829600  0.1695420493369824  0.1894267139446910
  0.6305586447625373  0.3304577499077226  0.6894301440373880
  0.3694413552374627  0.6695422500922774  0.3105698559626120
  0.8694430524170400  0.6695420493369824  0.1894267139446910
  0.1305569475829600  0.3304579506630176  0.8105732860553090
  0.0013256406228095  0.7259158865376136  0.9552405279919824
  0.9986743593771905  0.2740841134623864  0.0447594720080176
  0.4986743746502071  0.2740847703098837  0.4552407675344483
  0.5013256253497929  0.7259152296901163  0.5447592324655517
  0.5013256406228095  0.7740841134623864  0.0447594720080176
  0.4986743593771905  0.2259158865376136  0.9552405279919824
  0.9986743746502071  0.2259152296901163  0.5447592324655517
  0.0013256253497929  0.7740847703098837  0.4552407675344483
  0.0862513602702961  0.6775770514164776  0.6832137161216423
  0.9137486397297039  0.3224229485835224  0.3167862838783577
  0.4137446107818548  0.3224220724719373  0.1832153422281309
  0.5862553892181452  0.6775779275280627  0.8167846577718691
  0.5862513602702961  0.8224229485835224  0.3167862838783577
  0.4137486397297039  0.1775770514164776  0.6832137161216423
  0.9137446107818548  0.1775779275280627  0.8167846577718691
  0.0862553892181452  0.8224220724719373  0.1832153422281309
  0.1016938913973391  0.0702277420587976  0.5599021658162897
  0.8983061086026609  0.9297722579412024  0.4400978341837103
  0.3983096718203214  0.9297725927357874  0.0598995002496636
  0.6016903281796786  0.0702274072642126  0.9401004997503364
  0.6016938913973391  0.4297722579412024  0.4400978341837103
  0.3983061086026609  0.5702277420587976  0.5599021658162897
  0.8983096718203214  0.5702274072642126  0.9401004997503364
  0.1016903281796786  0.4297725927357874  0.0598995002496636
  0.1044212472208770  0.0197048753925273  0.7999381585368255
  0.8955787527791230  0.9802951246074727  0.2000618414631745
  0.3955779438948639  0.9802941465449209  0.2999350578653832
  0.6044220561051361  0.0197058534550791  0.7000649421346168
  0.6044212472208770  0.4802951246074727  0.2000618414631745
  0.3955787527791230  0.5197048753925273  0.7999381585368255
  0.8955779438948639  0.5197058534550791  0.7000649421346168
  0.1044220561051361  0.4802941465449209  0.2999350578653832
  0.1457444424774934  0.1176699717678602  0.0461419496249036
  0.8542555575225066  0.8823300282321398  0.9538580503750964
  0.3542590577368117  0.8823292789610093  0.5461512746455313
  0.6457409422631883  0.1176707210389907  0.4538487253544687
  0.6457444424774934  0.3823300282321398  0.9538580503750964
  0.3542555575225066  0.6176699717678602  0.0461419496249036
  0.8542590577368117  0.6176707210389907  0.4538487253544687
  0.1457409422631883  0.3823292789610093  0.5461512746455313
  0.2020334279337561  0.6523411323151151  0.4784824354988686
  0.7979665720662439  0.3476588676848849  0.5215175645011314
  0.2979660898272698  0.3476598086337219  0.9784846935181761
  0.7020339101727302  0.6523401913662781  0.0215153064818239
  0.7020334279337561  0.8476588676848849  0.5215175645011314
  0.2979665720662439  0.1523411323151151  0.4784824354988686
  0.7979660898272698  0.1523401913662781  0.0215153064818239
  0.2020339101727302  0.8476598086337219  0.9784846935181761
  0.2132319221416239  0.6255237191971474  0.8611642057980475
  0.7867680778583761  0.3744762808028597  0.1388357942019454
  0.2867663711279533  0.3744766849266270  0.3611698798809257
  0.7132336288720467  0.6255233150733801  0.6388301201190814
  0.7132319221416239  0.8744762808028526  0.1388357942019454
  0.2867680778583761  0.1255237191971403  0.8611642057980475
  0.7867663711279533  0.1255233150733730  0.6388301201190814
  0.2132336288720467  0.8744766849266199  0.3611698798809257
  0.2104299571651254  0.7087698768827124  0.1460963246559643
  0.7895700428348746  0.2912301231172876  0.8539036753440357
  0.2895706270746743  0.2912283001603768  0.6461017143381653
  0.7104293729253257  0.7087716998396303  0.3538982856618347
  0.7104299571651254  0.7912301231172876  0.8539036753440357
  0.2895700428348746  0.2087698768827195  0.1460963246559643
  0.7895706270746743  0.2087716998396303  0.3538982856618347
  0.2104293729253257  0.7912283001603697  0.6461017143381653
  0.2309977528039724  0.0198674105852348  0.1375925535938691
  0.7690022471960276  0.9801325894147652  0.8624074464061309
  0.2690030585975691  0.9801314942898571  0.6375985108685569
  0.7309969414024309  0.0198685057101429  0.3624014891314431
  0.7309977528039724  0.4801325894147652  0.8624074464061309
  0.2690022471960276  0.5198674105852348  0.1375925535938691
  0.7690030585975691  0.5198685057101429  0.3624014891314431
  0.2309969414024309  0.4801314942898571  0.6375985108685569

  0.00000000E+00  0.00000000E+00  0.00000000E+00
  0.00000000E+00  0.00000000E+00  0.00000000E+00
  0.00000000E+00  0.00000000E+00  0.00000000E+00
  0.00000000E+00  0.00000000E+00  0.00000000E+00
  0.00000000E+00  0.00000000E+00  0.00000000E+00
  0.00000000E+00  0.00000000E+00  0.00000000E+00
  0.00000000E+00  0.00000000E+00  0.00000000E+00
  0.00000000E+00  0.00000000E+00  0.00000000E+00
  0.00000000E+00  0.00000000E+00  0.00000000E+00
  0.00000000E+00  0.00000000E+00  0.00000000E+00
  0.00000000E+00  0.00000000E+00  0.00000000E+00
  0.00000000E+00  0.00000000E+00  0.00000000E+00
  0.00000000E+00  0.00000000E+00  0.00000000E+00
  0.00000000E+00  0.00000000E+00  0.00000000E+00
  0.00000000E+00  0.00000000E+00  0.00000000E+00
  0.00000000E+00  0.00000000E+00  0.00000000E+00
  0.00000000E+00  0.00000000E+00  0.00000000E+00
  0.00000000E+00  0.00000000E+00  0.00000000E+00
  0.00000000E+00  0.00000000E+00  0.00000000E+00
  0.00000000E+00  0.00000000E+00  0.00000000E+00
  0.00000000E+00  0.00000000E+00  0.00000000E+00
  0.00000000E+00  0.00000000E+00  0.00000000E+00
  0.00000000E+00  0.00000000E+00  0.00000000E+00
  0.00000000E+00  0.00000000E+00  0.00000000E+00
  0.00000000E+00  0.00000000E+00  0.00000000E+00
  0.00000000E+00  0.00000000E+00  0.00000000E+00
  0.00000000E+00  0.00000000E+00  0.00000000E+00
  0.00000000E+00  0.00000000E+00  0.00000000E+00
  0.00000000E+00  0.00000000E+00  0.00000000E+00
  0.00000000E+00  0.00000000E+00  0.00000000E+00
  0.00000000E+00  0.00000000E+00  0.00000000E+00
  0.00000000E+00  0.00000000E+00  0.00000000E+00
  0.00000000E+00  0.00000000E+00  0.00000000E+00
  0.00000000E+00  0.00000000E+00  0.00000000E+00
  0.00000000E+00  0.00000000E+00  0.00000000E+00
  0.00000000E+00  0.00000000E+00  0.00000000E+00
  0.00000000E+00  0.00000000E+00  0.00000000E+00
  0.00000000E+00  0.00000000E+00  0.00000000E+00
  0.00000000E+00  0.00000000E+00  0.00000000E+00
  0.00000000E+00  0.00000000E+00  0.00000000E+00
  0.00000000E+00  0.00000000E+00  0.00000000E+00
  0.00000000E+00  0.00000000E+00  0.00000000E+00
  0.00000000E+00  0.00000000E+00  0.00000000E+00
  0.00000000E+00  0.00000000E+00  0.00000000E+00
  0.00000000E+00  0.00000000E+00  0.00000000E+00
  0.00000000E+00  0.00000000E+00  0.00000000E+00
  0.00000000E+00  0.00000000E+00  0.00000000E+00
  0.00000000E+00  0.00000000E+00  0.00000000E+00
  0.00000000E+00  0.00000000E+00  0.00000000E+00
  0.00000000E+00  0.00000000E+00  0.00000000E+00
  0.00000000E+00  0.00000000E+00  0.00000000E+00
  0.00000000E+00  0.00000000E+00  0.00000000E+00
  0.00000000E+00  0.00000000E+00  0.00000000E+00
  0.00000000E+00  0.00000000E+00  0.00000000E+00
  0.00000000E+00  0.00000000E+00  0.00000000E+00
  0.00000000E+00  0.00000000E+00  0.00000000E+00
  0.00000000E+00  0.00000000E+00  0.00000000E+00
  0.00000000E+00  0.00000000E+00  0.00000000E+00
  0.00000000E+00  0.00000000E+00  0.00000000E+00
  0.00000000E+00  0.00000000E+00  0.00000000E+00
  0.00000000E+00  0.00000000E+00  0.00000000E+00
  0.00000000E+00  0.00000000E+00  0.00000000E+00
  0.00000000E+00  0.00000000E+00  0.00000000E+00
  0.00000000E+00  0.00000000E+00  0.00000000E+00
  0.00000000E+00  0.00000000E+00  0.00000000E+00
  0.00000000E+00  0.00000000E+00  0.00000000E+00
  0.00000000E+00  0.00000000E+00  0.00000000E+00
  0.00000000E+00  0.00000000E+00  0.00000000E+00
  0.00000000E+00  0.00000000E+00  0.00000000E+00
  0.00000000E+00  0.00000000E+00  0.00000000E+00
  0.00000000E+00  0.00000000E+00  0.00000000E+00
  0.00000000E+00  0.00000000E+00  0.00000000E+00
  0.00000000E+00  0.00000000E+00  0.00000000E+00
  0.00000000E+00  0.00000000E+00  0.00000000E+00
  0.00000000E+00  0.00000000E+00  0.00000000E+00
  0.00000000E+00  0.00000000E+00  0.00000000E+00
  0.00000000E+00  0.00000000E+00  0.00000000E+00
  0.00000000E+00  0.00000000E+00  0.00000000E+00
  0.00000000E+00  0.00000000E+00  0.00000000E+00
  0.00000000E+00  0.00000000E+00  0.00000000E+00
