Li2 O3 Ge1                              
   1.00000000000000     
     4.8327514052090308    0.0000000000000000    0.0038544909790864
     0.0000000000000000    8.4913394244901035    0.0000000000000000
    -1.6309114555833792    0.0000000000000000    9.3494797417200370
   Li   O    Ge
    16    24     8
Direct
  0.2500000000000000  0.2500000000000000  0.5000000000000000
  0.7500000000000000  0.7500000000000000  0.5000000000000000
  0.7500000000000000  0.2500000000000000  0.0000000000000000
  0.2500000000000000  0.7500000000000000  0.0000000000000000
  0.0000000000000000  0.0916736303659533  0.2500000000000000
  0.0000000000000000  0.9083263616340460  0.7500000000000000
  0.5000000000000000  0.5916736383659540  0.2500000000000000
  0.5000000000000000  0.4083263616340460  0.7500000000000000
  0.0000000000000000  0.4082871407055464  0.2500000000000000
  0.0000000000000000  0.5917128592944536  0.7500000000000000
  0.5000000000000000  0.9082871407055464  0.2500000000000000
  0.5000000000000000  0.0917128592944536  0.7500000000000000
  0.0000000000000000  0.7499364551144012  0.2500000000000000
  0.0000000000000000  0.2500635748855942  0.7500000000000000
  0.5000000000000000  0.2499364251144058  0.2500000000000000
  0.5000000000000000  0.7500635448855988  0.7500000000000000
  0.1419641024424720  0.2499981565617446  0.1147653349714588
  0.8580359125575256  0.7500018134382600  0.8852346200285410
  0.8580359125575256  0.2499981565617446  0.3852346790285424
  0.1419641024424720  0.7500018134382600  0.6147653799714590
  0.6419640874424744  0.7499981865617400  0.1147653349714588
  0.3580359125575256  0.2500018434382554  0.8852346200285410
  0.3580359125575256  0.7499981865617400  0.3852346790285424
  0.6419640874424744  0.2500018434382554  0.6147653799714590
  0.1107509560142148  0.5724249385345672  0.1145773359220641
  0.8892490729857840  0.4275750614654328  0.8854226640779359
  0.8892490729857840  0.5724249385345672  0.3854226640779359
  0.1107509560142148  0.4275750614654328  0.6145773359220641
  0.6107509270142160  0.0724249385345672  0.1145773359220641
  0.3892490439857852  0.9275750614654328  0.8854226640779359
  0.3892490439857852  0.0724249385345672  0.3854226640779359
  0.6107509270142160  0.9275750614654328  0.6145773359220641
  0.1107604429426630  0.9275741293767723  0.1145770342625454
  0.8892395270573417  0.0724258856232325  0.8854229947374606
  0.8892395270573417  0.9275741293767723  0.3854229947374606
  0.1107604429426630  0.0724258856232325  0.6145770052625394
  0.6107604729426583  0.4275740993767698  0.1145770342625454
  0.3892395570573370  0.5724258706232277  0.8854229947374606
  0.3892395570573370  0.4275740993767698  0.3854229947374606
  0.6107604729426583  0.5724258706232277  0.6145770052625394
  0.2499946767194317  0.0831686932364022  0.9999929005767285
  0.7500052932805659  0.9168313367635932  0.0000071024232682
  0.7500052932805659  0.0831686932364022  0.5000071024232682
  0.2499946767194317  0.9168313367635932  0.4999928975767318
  0.7499947067194341  0.5831686632364068  0.9999929005767285
  0.2500053082805707  0.4168313067635978  0.0000071024232682
  0.2500053082805707  0.5831686632364068  0.5000071024232682
  0.7499947067194341  0.4168313067635978  0.4999928975767318
 
  0.00000000E+00  0.00000000E+00  0.00000000E+00
  0.00000000E+00  0.00000000E+00  0.00000000E+00
  0.00000000E+00  0.00000000E+00  0.00000000E+00
  0.00000000E+00  0.00000000E+00  0.00000000E+00
  0.00000000E+00  0.00000000E+00  0.00000000E+00
  0.00000000E+00  0.00000000E+00  0.00000000E+00
  0.00000000E+00  0.00000000E+00  0.00000000E+00
  0.00000000E+00  0.00000000E+00  0.00000000E+00
  0.00000000E+00  0.00000000E+00  0.00000000E+00
  0.00000000E+00  0.00000000E+00  0.00000000E+00
  0.00000000E+00  0.00000000E+00  0.00000000E+00
  0.00000000E+00  0.00000000E+00  0.00000000E+00
  0.00000000E+00  0.00000000E+00  0.00000000E+00
  0.00000000E+00  0.00000000E+00  0.00000000E+00
  0.00000000E+00  0.00000000E+00  0.00000000E+00
  0.00000000E+00  0.00000000E+00  0.00000000E+00
  0.00000000E+00  0.00000000E+00  0.00000000E+00
  0.00000000E+00  0.00000000E+00  0.00000000E+00
  0.00000000E+00  0.00000000E+00  0.00000000E+00
  0.00000000E+00  0.00000000E+00  0.00000000E+00
  0.00000000E+00  0.00000000E+00  0.00000000E+00
  0.00000000E+00  0.00000000E+00  0.00000000E+00
  0.00000000E+00  0.00000000E+00  0.00000000E+00
  0.00000000E+00  0.00000000E+00  0.00000000E+00
  0.00000000E+00  0.00000000E+00  0.00000000E+00
  0.00000000E+00  0.00000000E+00  0.00000000E+00
  0.00000000E+00  0.00000000E+00  0.00000000E+00
  0.00000000E+00  0.00000000E+00  0.00000000E+00
  0.00000000E+00  0.00000000E+00  0.00000000E+00
  0.00000000E+00  0.00000000E+00  0.00000000E+00
  0.00000000E+00  0.00000000E+00  0.00000000E+00
  0.00000000E+00  0.00000000E+00  0.00000000E+00
  0.00000000E+00  0.00000000E+00  0.00000000E+00
  0.00000000E+00  0.00000000E+00  0.00000000E+00
  0.00000000E+00  0.00000000E+00  0.00000000E+00
  0.00000000E+00  0.00000000E+00  0.00000000E+00
  0.00000000E+00  0.00000000E+00  0.00000000E+00
  0.00000000E+00  0.00000000E+00  0.00000000E+00
  0.00000000E+00  0.00000000E+00  0.00000000E+00
  0.00000000E+00  0.00000000E+00  0.00000000E+00
  0.00000000E+00  0.00000000E+00  0.00000000E+00
  0.00000000E+00  0.00000000E+00  0.00000000E+00
  0.00000000E+00  0.00000000E+00  0.00000000E+00
  0.00000000E+00  0.00000000E+00  0.00000000E+00
  0.00000000E+00  0.00000000E+00  0.00000000E+00
  0.00000000E+00  0.00000000E+00  0.00000000E+00
  0.00000000E+00  0.00000000E+00  0.00000000E+00
  0.00000000E+00  0.00000000E+00  0.00000000E+00
